Solving original (integer) problem with strategy gdp.hull_exact...
--- Job model.gms Start 02/14/26 19:56:17 52.2.0 d8e408be LEX-LEG x86 64bit/Linux
--- Applying:
    /package/gams/52.2/gmsprmun.txt
--- GAMS Parameters defined
    Input /local/scratch/a/sgusev/repos/k_means/data/gams_gurobi_gdp.hull_exact/no_mode/2026-02-14_19-56-17/original/model.gms
    Output /local/scratch/a/sgusev/repos/k_means/data/gams_gurobi_gdp.hull_exact/no_mode/2026-02-14_19-56-17/original/output.lst
    ScrDir /local/scratch/a/sgusev/repos/k_means/data/gams_gurobi_gdp.hull_exact/no_mode/2026-02-14_19-56-17/original/225a/
    SysDir /package/gams/52.2/
    CurDir /local/scratch/a/sgusev/repos/k_means/data/gams_gurobi_gdp.hull_exact/no_mode/2026-02-14_19-56-17/original/
    LogOption 3
    AppendLog 1
Licensee: David Bernal / SECQUOIA Research Group         G251008+0003Ac-GEN
          Purdue University, Davidson School of Chemical EngineeringDCE4838
          225a/gamslice.dat
          5a82958a-fbca-4a23
          node:66820903 mem:995 cores:48 ipport:33797 v:2                  
          Evaluation license: Not for commercial or production use
          The time-limited license stops working on : Jun 30, 2027
System information: 48 physical cores and 995 Gb physical memory detected
GAMS 52.2.0   Copyright (C) 1987-2025 GAMS Development. All rights reserved
--- Starting compilation
--- model.gms(3284) 2 Mb
--- $echo File /local/scratch/a/sgusev/repos/k_means/data/gams_gurobi_gdp.hull_exact/no_mode/2026-02-14_19-56-17/original/gurobi.opt
--- model.gms(4809) 2 Mb
--- Starting execution: elapsed 0:00:00.018
--- model.gms(3293) 3 Mb
--- Generating MINLP model GAMS_MODEL
--- model.gms(3297) 6 Mb
---   999 rows  460 columns  2,405 non-zeroes
---   1,512 nl-code  252 nl-non-zeroes
---   36 discrete-columns
--- Range statistics (absolute non-zero finite values)
--- RHS       [min, max] : [ 1.000E+00, 1.000E+00] - Zero values observed as well
--- Bound     [min, max] : [ 1.000E+00, 1.200E+02] - Zero values observed as well
--- Matrix    [min, max] : [ 1.000E+00, 1.200E+02] - Zero values observed as well
--- model.gms(3297) 4 Mb
--- Executing GUROBI (Solvelink=5): elapsed 0:00:00.024
Reading parameter(s) from "/local/scratch/a/sgusev/repos/k_means/data/gams_gurobi_gdp.hull_exact/no_mode/2026-02-14_19-56-17/original/gurobi.opt"
>>  NonConvex 2
>>  Threads 1
>>  MIPGap 1e-06
>>  MIPGapAbs 1e-10
>>  FeasibilityTol 1e-06
>>  OptimalityTol 1e-06
>>  IntFeasTol 1e-05
Finished reading from "/local/scratch/a/sgusev/repos/k_means/data/gams_gurobi_gdp.hull_exact/no_mode/2026-02-14_19-56-17/original/gurobi.opt"

... GRB_LICENSE_FILE = /local/scratch/a/sgusev/gurobi.lic

    Gurobi           52.2.0 d8e408be Dec 8, 2025           LEG x86 64bit/Linux    

... GAMS/Gurobi Link license.
... GMO Q Extraction (ThreePass): 0.00s

    Gurobi Optimizer version 13.0.0 build v13.0.0rc1 (linux64 - "Oracle Linux Server 9.7")
    
    CPU model: AMD EPYC 7643 48-Core Processor, instruction set [SSE2|AVX|AVX2]
    Thread count: 48 physical cores, 96 logical processors, using up to 1 threads
    
    Non-default parameters:
    TimeLimit  300
    MIPGap  1e-06
    LogToConsole  0
    NonConvex  2
    Threads  1
    
    Optimize a model with 962 rows, 459 columns and 2140 nonzeros (Min)
    Model fingerprint: 0xc9f5293b
    Model has 12 linear objective coefficients
    Model has 36 quadratic constraints
    Variable types: 423 continuous, 36 integer (0 binary)
    Coefficient statistics:
      Matrix range     [1e+00, 1e+02]
      QMatrix range    [2e-03, 3e+00]
      Objective range  [1e+00, 1e+00]
      Bounds range     [1e+00, 1e+02]
      RHS range        [1e+00, 1e+00]
    Presolve removed 180 rows and 192 columns
    Presolve time: 0.01s
    Presolved: 1172 rows, 666 columns, 3169 nonzeros
    Presolved model has 180 quadratic constraint(s)
    Variable types: 630 continuous, 36 integer (36 binary)
    
    Root relaxation: objective 0.000000e+00, 373 iterations, 0.00 seconds (0.01 work units)
    
        Nodes    |    Current Node    |     Objective Bounds      |     Work
     Expl Unexpl |  Obj  Depth IntInf | Incumbent    BestBd   Gap | It/Node Time
    
         0     0    0.00000    0    6          -    0.00000      -     -    0s
    H    0     0                      38.1069325    0.00000   100%     -    0s
         0     0    0.00000    0   18   38.10693    0.00000   100%     -    0s
    H    0     0                      15.3048840    0.00000   100%     -    0s
         0     0    0.00000    0   18   15.30488    0.00000   100%     -    0s
         0     0    0.00000    0   20   15.30488    0.00000   100%     -    0s
         0     0    0.00000    0   20   15.30488    0.00000   100%     -    0s
         0     0    0.00000    0    6   15.30488    0.00000   100%     -    0s
         0     0    0.00000    0   21   15.30488    0.00000   100%     -    0s
         0     0    0.00000    0   21   15.30488    0.00000   100%     -    0s
         0     0    0.00000    0   14   15.30488    0.00000   100%     -    0s
         0     0    0.00000    0   22   15.30488    0.00000   100%     -    0s
         0     0    0.00000    0   16   15.30488    0.00000   100%     -    0s
         0     0    0.00000    0   19   15.30488    0.00000   100%     -    0s
         0     0    0.00000    0   18   15.30488    0.00000   100%     -    0s
         0     0    0.00000    0   18   15.30488    0.00000   100%     -    0s
         0     0    0.00000    0   18   15.30488    0.00000   100%     -    0s
         0     0    0.00000    0   18   15.30488    0.00000   100%     -    0s
         0     0    0.00000    0   18   15.30488    0.00000   100%     -    0s
         0     0    0.00000    0   18   15.30488    0.00000   100%     -    0s
         0     0    0.00000    0   14   15.30488    0.00000   100%     -    0s
         0     0    0.00000    0   18   15.30488    0.00000   100%     -    0s
         0     0    0.00000    0   18   15.30488    0.00000   100%     -    0s
         0     0    0.00000    0   18   15.30488    0.00000   100%     -    0s
         0     0    0.00000    0   16   15.30488    0.00000   100%     -    0s
         0     0    0.00000    0   18   15.30488    0.00000   100%     -    0s
         0     0    0.00000    0   18   15.30488    0.00000   100%     -    0s
         0     0    0.00000    0   22   15.30488    0.00000   100%     -    0s
         0     0    0.00000    0   17   15.30488    0.00000   100%     -    0s
         0     0    0.00000    0   19   15.30488    0.00000   100%     -    0s
         0     0    0.00000    0   14   15.30488    0.00000   100%     -    0s
         0     0    0.00000    0   18   15.30488    0.00000   100%     -    0s
         0     0    0.00000    0   14   15.30488    0.00000   100%     -    0s
         0     0    0.00000    0   16   15.30488    0.00000   100%     -    0s
         0     0    0.00000    0   16   15.30488    0.00000   100%     -    0s
         0     0    0.00000    0   16   15.30488    0.00000   100%     -    0s
         0     0    0.00000    0   16   15.30488    0.00000   100%     -    0s
         0     0    0.00000    0   18   15.30488    0.00000   100%     -    0s
         0     0    0.00000    0   15   15.30488    0.00000   100%     -    0s
         0     0    0.00000    0   18   15.30488    0.00000   100%     -    0s
         0     0    0.00000    0   18   15.30488    0.00000   100%     -    0s
         0     0    0.00000    0   20   15.30488    0.00000   100%     -    0s
         0     0    0.00000    0   20   15.30488    0.00000   100%     -    0s
         0     0    0.00000    0   18   15.30488    0.00000   100%     -    0s
         0     0    0.00000    0   16   15.30488    0.00000   100%     -    0s
         0     0    0.00000    0   17   15.30488    0.00000   100%     -    0s
         0     0    0.00000    0   12   15.30488    0.00000   100%     -    0s
         0     0    0.00000    0   16   15.30488    0.00000   100%     -    0s
         0     0    0.00000    0   14   15.30488    0.00000   100%     -    0s
         0     0    0.00000    0   22   15.30488    0.00000   100%     -    0s
         0     0    0.00000    0   12   15.30488    0.00000   100%     -    0s
         0     0    0.00000    0   20   15.30488    0.00000   100%     -    0s
         0     0    0.00000    0   10   15.30488    0.00000   100%     -    0s
         0     0    0.00000    0   14   15.30488    0.00000   100%     -    0s
         0     0    0.00000    0   14   15.30488    0.00000   100%     -    0s
         0     0    0.00000    0   18   15.30488    0.00000   100%     -    0s
         0     0    0.00000    0   18   15.30488    0.00000   100%     -    0s
         0     0    0.00000    0   19   15.30488    0.00000   100%     -    0s
         0     0    0.00000    0   19   15.30488    0.00000   100%     -    0s
         0     0    0.00000    0   18   15.30488    0.00000   100%     -    0s
         0     0    0.00000    0    8   15.30488    0.00000   100%     -    0s
         0     0    0.00000    0   18   15.30488    0.00000   100%     -    0s
         0     0    0.00000    0   16   15.30488    0.00000   100%     -    0s
         0     0    0.00000    0   20   15.30488    0.00000   100%     -    0s
         0     0    0.00000    0   16   15.30488    0.00000   100%     -    0s
         0     0    0.00000    0   18   15.30488    0.00000   100%     -    0s
         0     0    0.00000    0   16   15.30488    0.00000   100%     -    0s
         0     0    0.00000    0   18   15.30488    0.00000   100%     -    1s
         0     0    0.00000    0   18   15.30488    0.00000   100%     -    1s
         0     0    0.00000    0   20   15.30488    0.00000   100%     -    1s
         0     0    0.00000    0   13   15.30488    0.00000   100%     -    1s
         0     0    0.00000    0   19   15.30488    0.00000   100%     -    1s
         0     0    0.00000    0   19   15.30488    0.00000   100%     -    1s
         0     0    0.00000    0   19   15.30488    0.00000   100%     -    1s
         0     0    0.00000    0   19   15.30488    0.00000   100%     -    1s
         0     0    0.00000    0   20   15.30488    0.00000   100%     -    1s
         0     0    0.00000    0   20   15.30488    0.00000   100%     -    1s
         0     0    0.00000    0   20   15.30488    0.00000   100%     -    1s
         0     0    0.00000    0   20   15.30488    0.00000   100%     -    1s
         0     0    0.00000    0   20   15.30488    0.00000   100%     -    1s
         0     0    0.00000    0   20   15.30488    0.00000   100%     -    1s
         0     0    0.00000    0   20   15.30488    0.00000   100%     -    1s
         0     0    0.00000    0   18   15.30488    0.00000   100%     -    1s
         0     0    0.00000    0   20   15.30488    0.00000   100%     -    1s
         0     0    0.00000    0   16   15.30488    0.00000   100%     -    1s
         0     0    0.00000    0   14   15.30488    0.00000   100%     -    1s
         0     0    0.00000    0   14   15.30488    0.00000   100%     -    1s
         0     0    0.00000    0   20   15.30488    0.00000   100%     -    1s
         0     0    0.00000    0   20   15.30488    0.00000   100%     -    1s
         0     0    0.00000    0   18   15.30488    0.00000   100%     -    1s
         0     0    0.00000    0   18   15.30488    0.00000   100%     -    1s
         0     0    0.00000    0   19   15.30488    0.00000   100%     -    1s
         0     0    0.00000    0   14   15.30488    0.00000   100%     -    1s
         0     0    0.00000    0   14   15.30488    0.00000   100%     -    1s
         0     0    0.00000    0   14   15.30488    0.00000   100%     -    1s
         0     0    0.00000    0   16   15.30488    0.00000   100%     -    1s
         0     0    0.00000    0   16   15.30488    0.00000   100%     -    1s
         0     0    0.00000    0   18   15.30488    0.00000   100%     -    1s
         0     0    0.00000    0   18   15.30488    0.00000   100%     -    1s
         0     0    0.00000    0   18   15.30488    0.00000   100%     -    1s
         0     0    0.00000    0   18   15.30488    0.00000   100%     -    1s
         0     0    0.00000    0   18   15.30488    0.00000   100%     -    1s
         0     0    0.00000    0   16   15.30488    0.00000   100%     -    1s
         0     0    0.00000    0   16   15.30488    0.00000   100%     -    1s
         0     0    0.00000    0   14   15.30488    0.00000   100%     -    1s
         0     0    0.00000    0   20   15.30488    0.00000   100%     -    1s
         0     0    0.00000    0   17   15.30488    0.00000   100%     -    1s
         0     0    0.00000    0   20   15.30488    0.00000   100%     -    1s
         0     0    0.00000    0   20   15.30488    0.00000   100%     -    1s
         0     0    0.00000    0   20   15.30488    0.00000   100%     -    1s
         0     0    0.00000    0   20   15.30488    0.00000   100%     -    1s
         0     0    0.00000    0   20   15.30488    0.00000   100%     -    1s
         0     0    0.00000    0   14   15.30488    0.00000   100%     -    1s
         0     0    0.00000    0   16   15.30488    0.00000   100%     -    1s
         0     0    0.00000    0   16   15.30488    0.00000   100%     -    1s
         0     0    0.00000    0   18   15.30488    0.00000   100%     -    1s
         0     0    0.00000    0   18   15.30488    0.00000   100%     -    1s
         0     0    0.00000    0   20   15.30488    0.00000   100%     -    1s
         0     0    0.00000    0   18   15.30488    0.00000   100%     -    1s
         0     0    0.00000    0   18   15.30488    0.00000   100%     -    1s
         0     0    0.00000    0   18   15.30488    0.00000   100%     -    1s
         0     0    0.00000    0   18   15.30488    0.00000   100%     -    1s
         0     0    0.00000    0   18   15.30488    0.00000   100%     -    1s
         0     0    0.00000    0   21   15.30488    0.00000   100%     -    1s
         0     0    0.00000    0   12   15.30488    0.00000   100%     -    1s
         0     0    0.00000    0   16   15.30488    0.00000   100%     -    1s
         0     0    0.00000    0   16   15.30488    0.00000   100%     -    1s
         0     0    0.00000    0   18   15.30488    0.00000   100%     -    1s
         0     0    0.00000    0   18   15.30488    0.00000   100%     -    1s
         0     0    0.00000    0   21   15.30488    0.00000   100%     -    1s
         0     0    0.00000    0   14   15.30488    0.00000   100%     -    1s
         0     0    0.00000    0   14   15.30488    0.00000   100%     -    1s
         0     0    0.00000    0   14   15.30488    0.00000   100%     -    1s
         0     0    0.00000    0   22   15.30488    0.00000   100%     -    1s
         0     0    0.00000    0   12   15.30488    0.00000   100%     -    1s
         0     0    0.00000    0   18   15.30488    0.00000   100%     -    1s
         0     0    0.00000    0   10   15.30488    0.00000   100%     -    1s
         0     0    0.00000    0   14   15.30488    0.00000   100%     -    1s
         0     0    0.00000    0   14   15.30488    0.00000   100%     -    2s
         0     0    0.00000    0   16   15.30488    0.00000   100%     -    2s
         0     0    0.00000    0   12   15.30488    0.00000   100%     -    2s
         0     0    0.00000    0   20   15.30488    0.00000   100%     -    2s
         0     0    0.00000    0   19   15.30488    0.00000   100%     -    2s
         0     0    0.00000    0   20   15.30488    0.00000   100%     -    2s
         0     0    0.00000    0   16   15.30488    0.00000   100%     -    2s
         0     0    0.00000    0   16   15.30488    0.00000   100%     -    2s
         0     0    0.00000    0   16   15.30488    0.00000   100%     -    2s
         0     0    0.00000    0   16   15.30488    0.00000   100%     -    2s
         0     0    0.00000    0   16   15.30488    0.00000   100%     -    2s
         0     0    0.00000    0   18   15.30488    0.00000   100%     -    2s
         0     0    0.00000    0    8   15.30488    0.00000   100%     -    2s
         0     0    0.00000    0   17   15.30488    0.00000   100%     -    2s
         0     0    0.00000    0   17   15.30488    0.00000   100%     -    2s
         0     0    0.00000    0   20   15.30488    0.00000   100%     -    2s
         0     0    0.00000    0   20   15.30488    0.00000   100%     -    2s
         0     0    0.00000    0   18   15.30488    0.00000   100%     -    2s
         0     0    0.00000    0   12   15.30488    0.00000   100%     -    2s
         0     0    0.00000    0   18   15.30488    0.00000   100%     -    2s
         0     0    0.00000    0   18   15.30488    0.00000   100%     -    2s
         0     0    0.00000    0   22   15.30488    0.00000   100%     -    2s
         0     0    0.00000    0   20   15.30488    0.00000   100%     -    2s
         0     0    0.00000    0   20   15.30488    0.00000   100%     -    2s
         0     0    0.00000    0   18   15.30488    0.00000   100%     -    2s
         0     0    0.00000    0   18   15.30488    0.00000   100%     -    2s
         0     0    0.00000    0   18   15.30488    0.00000   100%     -    2s
         0     0    0.00000    0   18   15.30488    0.00000   100%     -    2s
         0     0    0.00000    0   18   15.30488    0.00000   100%     -    2s
         0     0    0.00000    0   20   15.30488    0.00000   100%     -    2s
         0     0    0.00000    0   20   15.30488    0.00000   100%     -    2s
         0     0    0.00000    0   22   15.30488    0.00000   100%     -    2s
         0     0    0.00000    0   22   15.30488    0.00000   100%     -    2s
         0     0    0.00000    0   22   15.30488    0.00000   100%     -    2s
         0     0    0.00000    0   18   15.30488    0.00000   100%     -    2s
         0     0    0.00000    0   16   15.30488    0.00000   100%     -    2s
         0     0    0.00000    0   13   15.30488    0.00000   100%     -    2s
         0     0    0.00000    0   12   15.30488    0.00000   100%     -    2s
         0     0    0.00000    0   12   15.30488    0.00000   100%     -    2s
         0     0    0.00000    0   22   15.30488    0.00000   100%     -    2s
         0     0    0.00000    0   20   15.30488    0.00000   100%     -    2s
         0     0    0.00000    0   18   15.30488    0.00000   100%     -    2s
         0     0    0.00000    0   18   15.30488    0.00000   100%     -    2s
         0     0    0.00000    0   21   15.30488    0.00000   100%     -    2s
         0     0    0.00000    0   16   15.30488    0.00000   100%     -    2s
         0     0    0.00000    0   12   15.30488    0.00000   100%     -    2s
         0     0    0.00000    0   12   15.30488    0.00000   100%     -    2s
         0     0    0.00000    0   19   15.30488    0.00000   100%     -    2s
         0     0    0.00000    0   19   15.30488    0.00000   100%     -    2s
         0     0    0.00000    0   16   15.30488    0.00000   100%     -    2s
         0     0    0.00000    0   12   15.30488    0.00000   100%     -    2s
         0     0    0.00000    0   16   15.30488    0.00000   100%     -    2s
         0     0    0.00000    0   16   15.30488    0.00000   100%     -    2s
         0     0    0.00000    0   16   15.30488    0.00000   100%     -    2s
         0     0    0.00000    0   16   15.30488    0.00000   100%     -    2s
         0     0    0.00000    0   18   15.30488    0.00000   100%     -    2s
         0     0    0.00000    0   13   15.30488    0.00000   100%     -    2s
         0     0    0.00000    0   14   15.30488    0.00000   100%     -    2s
         0     0    0.00000    0   14   15.30488    0.00000   100%     -    2s
         0     0    0.00000    0   21   15.30488    0.00000   100%     -    2s
         0     0    0.00000    0   18   15.30488    0.00000   100%     -    2s
         0     0    0.00000    0   18   15.30488    0.00000   100%     -    2s
         0     0    0.00000    0   18   15.30488    0.00000   100%     -    3s
         0     0    0.00000    0   18   15.30488    0.00000   100%     -    3s
         0     0    0.00000    0   16   15.30488    0.00000   100%     -    3s
         0     0    0.00000    0   18   15.30488    0.00000   100%     -    3s
         0     0    0.00000    0   18   15.30488    0.00000   100%     -    3s
    H    0     0                      13.8060300    0.00000   100%     -    3s
         0     2    0.00000    0   18   13.80603    0.00000   100%     -    3s
    H    4     4                      12.9847832    0.00000   100%   177    3s
    H  310   200                      12.9171132    0.00000   100%   155    4s
    H  325   210                      12.6056698    0.00000   100%   155    4s
    H  326   211                      12.1678345    0.00000   100%   154    4s
    H  326   211                      12.1321693    0.00000   100%   154    4s
       327   212    6.87020   16   18   12.13217    0.00000   100%   154    5s
    H  333   205                      11.9796446    0.00000   100%   151    5s
       387   241   10.02548   17   25   11.97964    0.00000   100%   130   10s
    H  437   251                      11.2792187    0.00000   100%   255   12s
    H  445   244                      11.2792171    0.00000   100%   255   13s
    H  572   265                      10.5102368    0.49488  95.3%   231   14s
       657   286    5.32360   20   21   10.51024    2.03272  80.7%   220   15s
      1761   534    4.83516   20   18   10.51024    4.23384  59.7%   158   20s
      3430   841    9.02966   26    8   10.51024    5.72006  45.6%   125   25s
      5092  1049    7.37142   20   17   10.51024    6.35669  39.5%   116   30s
      7349  1205     cutoff   30        10.51024    7.04906  32.9%   105   35s
      9777  1164    8.89459   23   18   10.51024    7.68911  26.8%  97.5   40s
     12250   937    9.29869   26    9   10.51024    8.23935  21.6%  92.7   45s
     14683   419   10.37070   24   11   10.51024    9.05612  13.8%  88.3   50s
    
    Cutting planes:
      Flow cover: 2
    
    Explored 15471 nodes (1424103 simplex iterations) in 51.21 seconds (56.97 work units)
    Thread count was 1 (of 96 available processors)
    
    Solution count 10: 10.5102 11.2792 11.9796 ... 15.3049
    
    Optimal solution found (tolerance 1.00e-06)
    Best objective 1.051023678551e+01, best bound 1.051023678551e+01, gap 0.0000%
    
    User-callback calls 15582, time in user-callback 0.00 sec

... Solving fixed model...

    Gurobi Optimizer version 13.0.0 build v13.0.0rc1 (linux64 - "Oracle Linux Server 9.7")
    
    CPU model: AMD EPYC 7643 48-Core Processor, instruction set [SSE2|AVX|AVX2]
    Thread count: 48 physical cores, 96 logical processors, using up to 1 threads
    
    Non-default parameters:
    TimeLimit  300
    MIPGap  1e-06
    LogToConsole  0
    NonConvex  2
    Threads  1
    
    Optimize a model with 962 rows, 459 columns and 2140 nonzeros (Min)
    Model fingerprint: 0x63f37cb5
    Model has 12 linear objective coefficients
    Model has 36 quadratic constraints
    Coefficient statistics:
      Matrix range     [1e+00, 1e+02]
      QMatrix range    [2e-03, 3e+00]
      Objective range  [1e+00, 1e+00]
      Bounds range     [1e+00, 1e+02]
      RHS range        [1e+00, 1e+00]
    Presolve removed 960 rows and 432 columns
    Presolve time: 0.00s
    Presolved: 84 rows, 96 columns, 215 nonzeros
    Presolved model has 12 second-order cone constraints
    Ordering time: 0.00s
    
    Barrier statistics:
     AA' NZ     : 1.034e+03
     Factor NZ  : 1.288e+03
     Factor Ops : 2.608e+04 (less than 1 second per iteration)
     Threads    : 1
    
                      Objective                Residual
    Iter       Primal          Dual         Primal    Dual     Compl     Time
       0   7.42887614e+02 -5.15485432e+02  1.31e+01 4.09e+00  1.52e+01     0s
       1   7.01624934e+01 -1.04996255e+02  1.44e-05 4.50e-06  1.28e+00     0s
       2   1.29597952e+01 -1.72408218e+00  1.93e-07 2.52e-07  1.07e-01     0s
       3   1.20965387e+01  8.62450857e+00  2.13e-13 2.36e-08  2.53e-02     0s
       4   1.05394359e+01  1.02868249e+01  1.53e-14 2.58e-09  1.84e-03     0s
       5   1.05143525e+01  1.04795915e+01  3.33e-14 3.65e-10  2.54e-04     0s
       6   1.05103985e+01  1.05095456e+01  1.88e-12 8.31e-12  6.22e-06     0s
       7   1.05102490e+01  1.05101602e+01  2.67e-11 9.94e-13  6.48e-07     0s
       8   1.05102377e+01  1.05102257e+01  1.14e-10 2.45e-12  8.76e-08     0s
       9   1.05102368e+01  1.05102343e+01  3.24e-09 1.97e-11  1.84e-08     0s
    
    Barrier solved model in 9 iterations and 0.00 seconds (0.00 work units)
    Optimal objective 1.05102368e+01
    
    
    User-callback calls 0, time in user-callback 0.00 sec
    Warning: to get QCP duals, please set parameter QCPDual to 1

--- Reading solution for model GAMS_MODEL
***
*** Solver did not provide marginals for model GAMS_MODEL
***
--- Executing after solve: elapsed 0:00:51.269
--- model.gms(3300) 4 Mb
--- model.gms(4809) 6 Mb
--- Putfile results /local/scratch/a/sgusev/repos/k_means/data/gams_gurobi_gdp.hull_exact/no_mode/2026-02-14_19-56-17/original/results.dat
--- Putfile statresults /local/scratch/a/sgusev/repos/k_means/data/gams_gurobi_gdp.hull_exact/no_mode/2026-02-14_19-56-17/original/resultsstat.dat
*** Status: Normal completion
--- Job model.gms Stop 02/14/26 19:57:09 elapsed 0:00:51.271
Original problem solved. Time taken: 51.85902166366577 seconds
Original objective value: 10.510236785508527
